NAME : a280
COMMENT : drilling problem (Ludwig)
TYPE : TSP
DIMENSION: 10
EDGE_WEIGHT_TYPE : EUC_2D
NODE_COORD_SECTION
  1 288 149
  2 288 129
  3 270 133
  4 256 141
  5 256 157
  6 246 157
  7 236 169
  8 228 169
  9 228 161
 10 220 169
 EOF
 11 212 169
 12 204 169
 13 196 169
 14 188 169
 15 196 161
 16 188 145
 17 172 145
 18 164 145
 19 156 145
 20 148 145
 EOF

//t5: 0.008
//t6: 0.011

t7: 0.01s
t8: 0.08s
t9: 0.49s
t10: 21.02s
t11: 80.05s
t12: 646.08s

t12: 21.02s

 